Results/Experiment 1 Results/New Benchmark/RES_40/output_p1_0.25_p2_0.00_n_40_07.txt
solutions: 0 nodes: 0  modelTime: 105  solveTime: 9  totalTime: 118  modelSize: 7857  readTime: 3 matchingSize: 0
