Results/Experiment 2 Results/New Benchmark/output_p1_0.25_p2_0.00_n_40_07.lp
clingo version 5.4.0
Reading from tempSRTISolver.lp ...
Solving...
Answer: 1
matched(3,2) matched(6,4) matched(8,5) matched(1,7) matched(5,8) matched(10,11) matched(12,9) matched(15,14) matched(14,15) matched(18,19) matched(23,22) matched(25,24) matched(24,25) matched(31,30) matched(30,31) matched(32,29) matched(36,34) matched(37,35) matched(34,36) matched(38,39) matched(40,33) matched(2,3) matched(4,6) matched(7,1) matched(11,10) matched(19,18) matched(21,28) matched(28,21) matched(35,37) matched(39,38) matched(33,40) matched(13,16) matched(16,13) matched(22,23) matched(27,26) matched(29,32) matched(20,17) matched(26,27) matched(9,12) matched(17,20)
Optimization: 421
Answer: 2
matched(3,2) matched(6,4) matched(8,5) matched(1,7) matched(5,8) matched(12,11) matched(10,9) matched(15,14) matched(14,15) matched(18,19) matched(23,22) matched(25,24) matched(24,25) matched(31,30) matched(30,31) matched(32,29) matched(36,34) matched(37,35) matched(34,36) matched(38,39) matched(40,33) matched(2,3) matched(4,6) matched(7,1) matched(9,10) matched(19,18) matched(21,28) matched(28,21) matched(35,37) matched(39,38) matched(33,40) matched(13,16) matched(16,13) matched(22,23) matched(27,26) matched(29,32) matched(20,17) matched(26,27) matched(11,12) matched(17,20)
Optimization: 417
Answer: 3
matched(4,2) matched(2,4) matched(3,5) matched(6,7) matched(1,8) matched(12,11) matched(10,9) matched(16,14) matched(17,15) matched(18,19) matched(23,22) matched(21,24) matched(28,25) matched(31,30) matched(30,31) matched(32,29) matched(36,34) matched(37,35) matched(34,36) matched(38,39) matched(40,33) matched(5,3) matched(7,6) matched(8,1) matched(9,10) matched(19,18) matched(25,28) matched(24,21) matched(35,37) matched(39,38) matched(33,40) matched(14,16) matched(20,13) matched(22,23) matched(27,26) matched(29,32) matched(15,17) matched(26,27) matched(11,12) matched(13,20)
Optimization: 410
Answer: 4
matched(4,2) matched(2,4) matched(3,5) matched(6,7) matched(1,8) matched(12,11) matched(10,9) matched(16,14) matched(17,15) matched(18,19) matched(23,22) matched(25,24) matched(24,25) matched(31,30) matched(30,31) matched(32,29) matched(36,34) matched(37,35) matched(34,36) matched(38,39) matched(40,33) matched(5,3) matched(7,6) matched(8,1) matched(9,10) matched(19,18) matched(21,28) matched(28,21) matched(35,37) matched(39,38) matched(33,40) matched(14,16) matched(20,13) matched(22,23) matched(27,26) matched(29,32) matched(15,17) matched(26,27) matched(11,12) matched(13,20)
Optimization: 399
Answer: 5
matched(4,2) matched(2,4) matched(3,5) matched(6,7) matched(1,8) matched(12,11) matched(10,9) matched(15,14) matched(14,15) matched(13,19) matched(23,22) matched(25,24) matched(24,25) matched(29,30) matched(32,31) matched(30,29) matched(36,34) matched(37,35) matched(34,36) matched(38,39) matched(40,33) matched(5,3) matched(7,6) matched(8,1) matched(9,10) matched(16,18) matched(21,28) matched(28,21) matched(35,37) matched(39,38) matched(33,40) matched(18,16) matched(19,13) matched(22,23) matched(27,26) matched(31,32) matched(20,17) matched(26,27) matched(11,12) matched(17,20)
Optimization: 398
Answer: 6
matched(4,2) matched(2,4) matched(3,5) matched(6,7) matched(1,8) matched(12,11) matched(10,9) matched(16,14) matched(17,15) matched(18,19) matched(23,22) matched(25,24) matched(24,25) matched(29,30) matched(32,31) matched(30,29) matched(36,34) matched(37,35) matched(34,36) matched(38,39) matched(40,33) matched(5,3) matched(7,6) matched(8,1) matched(9,10) matched(19,18) matched(21,28) matched(28,21) matched(35,37) matched(39,38) matched(33,40) matched(14,16) matched(20,13) matched(22,23) matched(27,26) matched(31,32) matched(15,17) matched(26,27) matched(11,12) matched(13,20)
Optimization: 395
OPTIMUM FOUND

Models       : 6
  Optimum    : yes
Optimization : 395
Calls        : 1
Time         : 0.554s (Solving: 0.13s 1st Model: 0.00s Unsat: 0.11s)
CPU Time     : 0.505s
